Optimal - objective value 1604.00000000
      4 x_4                     1                      -3
      5 x_5                     1                      15
     11 x_11                    1                       0
     14 x_14                    1                       6
     19 x_19                    1                       0
     25 x_25                    1                      33
     29 x_29                    1                     -12
     33 x_33                    1                       0
     36 x_36                    1                      13
     43 x_43                    1                       0
     47 x_47                    1                       0
     48 x_48                    1                     -13
     52 x_52                    1                       0
     55 x_55                    1                     -13
     61 x_61                    1                      10
     63 x_63                    1                      10
     66 x_66                    1                       1
     72 x_72                    1                      14
     78 x_78                    1                     -16
     81 x_81                    1                       9
     85 x_85                    1                       0
     87 x_87                    1                       0
     91 x_91                    1                      -3
     99 x_99                    1                       6
    104 x_104                   1                      -6
    108 x_108                   1                       0
    113 x_113                   1                       5
    114 x_114                   1                       0
    120 x_120                   1                      -8
    123 x_123                   1                       0
    129 x_129                   1                       0
    137 x_137                   1                       0
    140 x_140                   1                      10
    145 x_145                   1                   -11.5
    150 x_150                   1                       0
    153 x_153                   1                      24
    158 x_158                   1                       0
    164 x_164                   1                       0
    167 x_167                   1                      26
    171 x_171                   1                       0
    172 x_172                   1                      12
    178 x_178                   1                       0
    183 x_183                   1                      27
    187 x_187                   1                      13
    193 x_193                   1                      28
    195 x_195                   1                       0
    204 x_204                   1                       2
    208 x_208                   1                       2
    214 x_214                   1                       0
    217 x_217                   1                       2
    223 x_223                   1                      15
    225 x_225                   1                      -4
    232 x_232                   1                      13
    236 x_236                   1                       0
    241 x_241                   1                     -21
    247 x_247                   1                     -13
    250 x_250                   1                      14
    256 x_256                   1                       5
    262 x_262                   1                      25
    263 x_263                   1                       5
    273 x_273                   1                       0
    275 x_275                   1                      13
    280 x_280                   1                     -15
    284 x_284                   1                       6
    287 x_287                   1                      13
    293 x_293                   1                       3
    297 x_297                   1                      10
    304 x_304                   1                       0
    310 x_310                   1                      -2
    311 x_311                   1                       0
    318 x_318                   1                     -12
    322 x_322                   1                    44.5
    323 x_323                   1                      -8
    331 x_331                   1                      10
    338 x_338                   1                      -1
    339 x_339                   1                     -17
    343 x_343                   1                       0
    346 x_346                   1                      13
    350 x_350                   1                      26
    355 x_355                   1                      24
Optimal - objective value 1604.00000000
      4 x_4                     1                      -3
      5 x_5                     1                      15
     11 x_11                    1                       0
     14 x_14                    1                       6
     19 x_19                    1                       0
     25 x_25                    1                      33
     29 x_29                    1                     -12
     33 x_33                    1                       0
     36 x_36                    1                      13
     43 x_43                    1                       0
     47 x_47                    1                       0
     48 x_48                    1                     -13
     52 x_52                    1                       0
     55 x_55                    1                     -13
     61 x_61                    1                      10
     63 x_63                    1                      10
     66 x_66                    1                       1
     72 x_72                    1                      14
     78 x_78                    1                     -16
     81 x_81                    1                       9
     85 x_85                    1                       0
     87 x_87                    1                       0
     91 x_91                    1                      -3
     99 x_99                    1                       6
    104 x_104                   1                      -6
    108 x_108                   1                       0
    113 x_113                   1                       5
    114 x_114                   1                       0
    120 x_120                   1                      -8
    123 x_123                   1                       0
    129 x_129                   1                       0
    137 x_137                   1                       0
    140 x_140                   1                      10
    145 x_145                   1                   -11.5
    150 x_150                   1                       0
    153 x_153                   1                      24
    158 x_158                   1                       0
    164 x_164                   1                       0
    167 x_167                   1                      26
    171 x_171                   1                       0
    172 x_172                   1                      12
    178 x_178                   1                       0
    183 x_183                   1                      27
    187 x_187                   1                      13
    193 x_193                   1                      28
    195 x_195                   1                       0
    204 x_204                   1                       2
    208 x_208                   1                       2
    214 x_214                   1                       0
    217 x_217                   1                       2
    223 x_223                   1                      15
    225 x_225                   1                      -4
    232 x_232                   1                      13
    236 x_236                   1                       0
    241 x_241                   1                     -21
    247 x_247                   1                     -13
    250 x_250                   1                      14
    256 x_256                   1                       5
    262 x_262                   1                      25
    263 x_263                   1                       5
    273 x_273                   1                       0
    275 x_275                   1                      13
    280 x_280                   1                     -15
    284 x_284                   1                       6
    287 x_287                   1                      13
    293 x_293                   1                       3
    297 x_297                   1                      10
    304 x_304                   1                       0
    310 x_310                   1                      -2
    311 x_311                   1                       0
    318 x_318                   1                     -12
    322 x_322                   1                    44.5
    323 x_323                   1                      -8
    331 x_331                   1                      10
    338 x_338                   1                      -1
    339 x_339                   1                     -17
    343 x_343                   1                       0
    346 x_346                   1                      13
    350 x_350                   1                      26
    355 x_355                   1                      24
